1 1 0 1 1 1 1 1 0 
0 39 10 14 17 51 13 30 25 
39 0 36 36 9 21 51 50 9 
10 36 0 7 27 28 40 48 21 
14 36 7 0 48 31 27 22 41 
17 9 27 48 0 40 12 27 23 
51 21 28 31 40 0 29 27 48 
13 51 40 27 12 29 0 7 52 
30 50 48 22 27 27 7 0 24 
25 9 21 41 23 48 52 24 0 
3 20
1P 4P 3B 6P 9B 2P 5P 7P 8P = 164